Route #1: 0 21 3 40 11 35 0
Route #2: 0 48 1 56 16 55 58 0
Route #3: 0 49 2 30 47 59 20 0
Route #4: 0 4 6 33 43 23 12 0
Route #5: 0 25 38 34 13 29 45 0
Route #6: 0 26 31 32 50 24 0
Route #7: 0 42 22 36 15 57 54 27 46 0
Route #8: 0 44 9 39 53 14 0
Route #9: 0 17 28 37 5 52 7 0
Route #10: 0 8 19 10 18 41 51 0
Cost 1315:
